MARKOV
464
 2 2 2 2 2 2 2 2 2 2 2 2 2 2 2 2 2 2 2 2 2 2 2 2 2 2 2 2 2 2 2 2 2 2 2 2 2 2 2 2 2 2 2 2 2 2 2 2 2 2 2 2 2 2 2 2 2 2 2 2 2 2 2 2 2 2 2 2 2 2 2 2 2 2 2 2 2 2 2 2 2 2 2 2 2 2 2 2 2 2 2 2 2 2 2 2 2 2 2 2 2 2 2 2 2 2 2 2 2 2 2 2 2 2 2 2 2 2 2 2 2 2 2 2 2 2 2 2 2 2 2 2 2 2 2 2 2 2 2 2 2 2 2 2 2 2 2 2 2 2 2 2 2 2 2 2 2 2 2 2 2 2 2 2 2 2 2 2 2 2 2 2 2 2 2 2 2 2 2 2 2 2 2 2 2 2 2 2 2 2 2 2 2 2 2 2 2 2 2 2 2 2 2 2 2 2 2 2 2 2 2 2 2 2 2 2 2 2 2 2 2 2 2 2 2 2 2 2 2 2 2 2 2 2 2 2 2 2 2 2 2 2 2 2 2 2 2 2 2 2 2 2 2 2 2 2 2 2 2 2 2 2 2 2 2 2 2 2 2 2 2 2 2 2 2 2 2 2 2 2 2 2 2 2 2 2 2 2 2 2 2 2 2 2 2 2 2 2 2 2 2 2 2 2 2 2 2 2 2 2 2 2 2 2 2 2 2 2 2 2 2 2 2 2 2 2 2 2 2 2 2 2 2 2 2 2 2 2 2 2 2 2 2 2 2 2 2 2 2 2 2 2 2 2 2 2 2 2 2 2 2 2 2 2 2 2 2 2 2 2 2 2 2 2 2 2 2 2 2 2 2 2 2 2 2 2 2 2 2 2 2 2 2 2 2 2 2 2 2 2 2 2 2 2 2 2 2 2 2 2 2 2 2 2 2 2 2 2 2 2 2 2 2 2 2 2 2 2 2 2 2 2 2 2 2 2 2 2 2 2 2 2 2 2 2 2 2 2 2 2 2 2 2 2 2 2 2 2 2 2 2 2 2 2
467
3	74 88 463 
3	149 462 463 
3	0 461 462 
3	125 460 461 
3	109 459 460 
3	27 458 459 
3	141 457 458 
3	129 456 457 
3	76 455 456 
3	70 454 455 
3	153 453 454 
3	5 452 453 
3	29 451 452 
3	193 450 451 
3	180 449 450 
3	133 448 449 
3	19 447 448 
3	107 446 447 
3	166 445 446 
3	55 444 445 
3	184 443 444 
3	132 442 443 
3	34 441 442 
3	112 440 441 
3	186 439 440 
3	4 438 439 
3	65 437 438 
3	51 436 437 
3	64 435 436 
3	119 434 435 
3	108 433 434 
3	123 432 433 
3	42 431 432 
3	14 430 431 
3	121 429 430 
3	118 428 429 
3	164 427 428 
3	131 426 427 
3	178 425 426 
3	104 424 425 
3	62 423 424 
3	11 422 423 
3	159 421 422 
3	134 420 421 
3	81 419 420 
3	183 418 419 
3	177 417 418 
3	99 416 417 
3	95 415 416 
3	110 414 415 
3	161 413 414 
3	91 412 413 
3	68 411 412 
3	150 410 411 
3	145 409 410 
3	146 408 409 
3	8 407 408 
3	6 406 407 
3	3 405 406 
3	33 404 405 
3	60 403 404 
3	165 402 403 
3	124 401 402 
3	101 400 401 
3	111 399 400 
3	189 398 399 
3	117 397 398 
3	84 396 397 
3	169 395 396 
3	80 394 395 
3	115 393 394 
3	22 392 393 
3	122 391 392 
3	152 390 391 
3	102 389 390 
1	389 
3	143 149 388 
3	47 387 388 
3	61 386 387 
3	171 385 386 
3	26 384 385 
3	30 383 384 
3	193 382 383 
3	63 381 382 
3	184 380 381 
3	126 379 380 
3	103 378 379 
3	77 377 378 
3	23 376 377 
3	93 375 376 
3	85 374 375 
3	17 373 374 
3	144 372 373 
3	164 371 372 
3	178 370 371 
3	159 369 370 
3	134 368 369 
3	99 367 368 
3	177 366 367 
3	183 365 366 
3	167 364 365 
3	53 363 364 
3	173 362 363 
3	161 361 362 
3	66 360 361 
3	78 359 360 
3	69 358 359 
3	165 357 358 
3	60 356 357 
3	36 355 356 
3	10 354 355 
3	72 353 354 
3	97 352 353 
3	162 351 352 
3	73 350 351 
3	170 349 350 
3	136 348 349 
3	25 347 348 
3	50 346 347 
3	141 345 346 
3	75 344 345 
3	191 343 344 
3	58 342 343 
3	52 341 342 
3	153 340 341 
3	76 339 340 
3	31 338 339 
3	180 337 338 
3	105 336 337 
3	174 335 336 
3	55 334 335 
3	56 333 334 
3	112 332 333 
3	51 331 332 
3	65 330 331 
3	7 329 330 
3	94 328 329 
3	43 327 328 
3	42 326 327 
3	185 325 326 
3	158 324 325 
3	154 323 324 
3	130 322 323 
3	40 321 322 
3	2 320 321 
3	131 319 320 
3	38 318 319 
3	96 317 318 
3	104 316 317 
3	49 315 316 
3	62 314 315 
3	135 313 314 
3	13 312 313 
3	67 311 312 
3	110 310 311 
3	83 309 310 
3	91 308 309 
3	156 307 308 
3	176 306 307 
3	145 305 306 
3	146 304 305 
3	59 303 304 
3	6 302 303 
3	116 301 302 
3	45 300 301 
3	39 299 300 
3	117 298 299 
3	114 297 298 
3	84 296 297 
3	80 295 296 
3	182 294 295 
3	71 293 294 
3	152 292 293 
3	128 291 292 
3	88 290 291 
3	92 289 290 
3	74 288 289 
3	37 287 288 
3	0 286 287 
3	125 285 286 
3	181 284 285 
3	27 283 284 
3	44 282 283 
3	24 281 282 
3	129 280 281 
3	179 279 280 
3	5 278 279 
3	29 277 278 
3	151 276 277 
3	187 275 276 
3	19 274 275 
3	166 273 274 
3	34 272 273 
3	4 271 272 
3	186 270 271 
3	113 269 270 
3	119 268 269 
3	64 267 268 
3	108 266 267 
3	142 265 266 
3	46 264 265 
3	86 263 264 
3	168 262 263 
3	140 261 262 
3	172 260 261 
3	11 259 260 
3	48 258 259 
3	82 257 258 
3	137 256 257 
3	188 255 256 
3	120 254 255 
3	21 253 254 
3	89 252 253 
3	157 251 252 
3	68 250 251 
3	106 249 250 
3	139 248 249 
3	127 247 248 
3	124 246 247 
3	101 245 246 
3	98 244 245 
3	111 243 244 
3	87 242 243 
3	54 241 242 
3	189 240 241 
3	138 239 240 
3	169 238 239 
3	22 237 238 
3	148 236 237 
3	79 235 236 
3	160 234 235 
3	163 233 234 
3	90 232 233 
3	109 231 232 
3	194 230 231 
3	147 229 230 
3	1 228 229 
3	15 227 228 
3	20 226 227 
3	18 225 226 
3	70 224 225 
3	133 223 224 
3	107 222 223 
3	175 221 222 
3	132 220 221 
3	12 219 220 
3	123 218 219 
3	190 217 218 
3	155 216 217 
3	14 215 216 
3	121 214 215 
3	118 213 214 
3	100 212 213 
3	81 211 212 
3	192 210 211 
3	95 209 210 
3	57 208 209 
3	35 207 208 
3	32 206 207 
3	28 205 206 
3	150 204 205 
3	9 203 204 
3	8 202 203 
3	3 201 202 
3	33 200 201 
3	16 199 200 
3	115 198 199 
3	122 197 198 
3	41 196 197 
3	102 195 196 
1	195 
1	143 
1	149 
1	47 
1	61 
1	171 
1	26 
1	30 
1	193 
1	63 
1	184 
1	103 
1	126 
1	77 
1	23 
1	85 
1	93 
1	17 
1	144 
1	164 
1	178 
1	159 
1	134 
1	99 
1	183 
1	177 
1	167 
1	53 
1	173 
1	66 
1	161 
1	78 
1	69 
1	165 
1	60 
1	36 
1	10 
1	72 
1	97 
1	162 
1	73 
1	170 
1	136 
1	25 
1	50 
1	141 
1	75 
1	191 
1	58 
1	52 
1	76 
1	153 
1	31 
1	180 
1	105 
1	174 
1	55 
1	56 
1	112 
1	65 
1	51 
1	7 
1	94 
1	42 
1	43 
1	185 
1	158 
1	154 
1	130 
1	40 
1	2 
1	131 
1	38 
1	104 
1	96 
1	62 
1	49 
1	135 
1	13 
1	67 
1	110 
1	91 
1	83 
1	156 
1	176 
1	146 
1	145 
1	59 
1	6 
1	116 
1	45 
1	39 
1	117 
1	114 
1	84 
1	80 
1	182 
1	71 
1	152 
1	128 
1	88 
1	74 
1	92 
1	0 
1	37 
1	125 
1	181 
1	27 
1	44 
1	24 
1	129 
1	179 
1	5 
1	29 
1	151 
1	187 
1	19 
1	166 
1	34 
1	186 
1	4 
1	113 
1	64 
1	119 
1	108 
1	142 
1	46 
1	86 
1	168 
1	140 
1	172 
1	11 
1	48 
1	82 
1	137 
1	188 
1	120 
1	21 
1	89 
1	157 
1	68 
1	106 
1	139 
1	127 
1	124 
1	101 
1	98 
1	111 
1	87 
1	54 
1	189 
1	138 
1	169 
1	22 
1	148 
1	79 
1	160 
1	163 
1	90 
1	109 
1	194 
1	147 
1	1 
1	15 
1	20 
1	18 
1	70 
1	133 
1	107 
1	175 
1	132 
1	12 
1	123 
1	190 
1	155 
1	14 
1	121 
1	118 
1	100 
1	81 
1	192 
1	95 
1	57 
1	35 
1	32 
1	28 
1	150 
1	9 
1	8 
1	3 
1	33 
1	16 
1	115 
1	122 
1	41 
1	102 
0	

8
 1 0 0 1 0 1 0 1
8
 1 0 0 1 0 0 1 1
8
 1 0 0 1 0 0 1 1
8
 1 0 0 1 0 0 1 1
8
 1 0 0 1 0 0 1 1
8
 1 0 0 1 0 0 1 1
8
 1 0 0 1 0 0 1 1
8
 1 0 0 1 0 0 1 1
8
 1 0 0 1 0 0 1 1
8
 1 0 0 1 0 0 1 1
8
 1 0 0 1 0 0 1 1
8
 1 0 0 1 0 0 1 1
8
 1 0 0 1 0 0 1 1
8
 1 0 0 1 0 0 1 1
8
 1 0 0 1 0 0 1 1
8
 1 0 0 1 0 0 1 1
8
 1 0 0 1 0 0 1 1
8
 1 0 0 1 0 0 1 1
8
 1 0 0 1 0 0 1 1
8
 1 0 0 1 0 0 1 1
8
 1 0 0 1 0 0 1 1
8
 1 0 0 1 0 0 1 1
8
 1 0 0 1 0 0 1 1
8
 1 0 0 1 0 0 1 1
8
 1 0 0 1 0 0 1 1
8
 1 0 0 1 0 0 1 1
8
 1 0 0 1 0 0 1 1
8
 1 0 0 1 0 0 1 1
8
 1 0 0 1 0 0 1 1
8
 1 0 0 1 0 0 1 1
8
 1 0 0 1 0 0 1 1
8
 1 0 0 1 0 0 1 1
8
 1 0 0 1 0 0 1 1
8
 1 0 0 1 0 0 1 1
8
 1 0 0 1 0 0 1 1
8
 1 0 0 1 0 0 1 1
8
 1 0 0 1 0 0 1 1
8
 1 0 0 1 0 0 1 1
8
 1 0 0 1 0 0 1 1
8
 1 0 0 1 0 0 1 1
8
 1 0 0 1 0 0 1 1
8
 1 0 0 1 0 0 1 1
8
 1 0 0 1 0 0 1 1
8
 1 0 0 1 0 0 1 1
8
 1 0 0 1 0 0 1 1
8
 1 0 0 1 0 0 1 1
8
 1 0 0 1 0 0 1 1
8
 1 0 0 1 0 0 1 1
8
 1 0 0 1 0 0 1 1
8
 1 0 0 1 0 0 1 1
8
 1 0 0 1 0 0 1 1
8
 1 0 0 1 0 0 1 1
8
 1 0 0 1 0 0 1 1
8
 1 0 0 1 0 0 1 1
8
 1 0 0 1 0 0 1 1
8
 1 0 0 1 0 0 1 1
8
 1 0 0 1 0 0 1 1
8
 1 0 0 1 0 0 1 1
8
 1 0 0 1 0 0 1 1
8
 1 0 0 1 0 0 1 1
8
 1 0 0 1 0 0 1 1
8
 1 0 0 1 0 0 1 1
8
 1 0 0 1 0 0 1 1
8
 1 0 0 1 0 0 1 1
8
 1 0 0 1 0 0 1 1
8
 1 0 0 1 0 0 1 1
8
 1 0 0 1 0 0 1 1
8
 1 0 0 1 0 0 1 1
8
 1 0 0 1 0 0 1 1
8
 1 0 0 1 0 0 1 1
8
 1 0 0 1 0 0 1 1
8
 1 0 0 1 0 0 1 1
8
 1 0 0 1 0 0 1 1
8
 1 0 0 1 0 0 1 1
8
 1 0 0 1 0 0 1 1
2
 0.03 1
8
 1 0 0 1 0.9 0.1 0 1
8
 1 0 0 1 0.2 0 0.8 1
8
 1 0 0 1 0.4 0 0.6 1
8
 1 0 0 1 0.5 0 0.5 1
8
 1 0 0 1 0.9 0 0.1 1
8
 1 0 0 1 0.5 0 0.5 1
8
 1 0 0 1 0.89 0 0.11 1
8
 1 0 0 1 0.5 0 0.5 1
8
 1 0 0 1 0 0 1 1
8
 1 0 0 1 0.89 0 0.11 1
8
 1 0 0 1 0.5 0 0.5 1
8
 1 0 0 1 0.2 0 0.8 1
8
 1 0 0 1 0.4 0 0.6 1
8
 1 0 0 1 0.1 0 0.9 1
8
 1 0 0 1 0.5 0 0.5 1
8
 1 0 0 1 0.5 0 0.5 1
8
 1 0 0 1 0.1 0 0.9 1
8
 1 0 0 1 0 0 1 1
8
 1 0 0 1 0.5 0 0.5 1
8
 1 0 0 1 0.01 0 0.99 1
8
 1 0 0 1 0 0 1 1
8
 1 0 0 1 0 0 1 1
8
 1 0 0 1 0 0 1 1
8
 1 0 0 1 0 0 1 1
8
 1 0 0 1 0.5 0 0.5 1
8
 1 0 0 1 0.9 0 0.1 1
8
 1 0 0 1 0.5 0 0.5 1
8
 1 0 0 1 0 0 1 1
8
 1 0 0 1 0.5 0 0.5 1
8
 1 0 0 1 0.9 0 0.1 1
8
 1 0 0 1 0.5 0 0.5 1
8
 1 0 0 1 0.1 0 0.9 1
8
 1 0 0 1 0 0 1 1
8
 1 0 0 1 0.1 0 0.9 1
8
 1 0 0 1 0.5 0 0.5 1
8
 1 0 0 1 0.9 0 0.1 1
8
 1 0 0 1 0.5 0 0.5 1
8
 1 0 0 1 0.5 0 0.5 1
8
 1 0 0 1 0.9 0 0.1 1
8
 1 0 0 1 0.09 0 0.91 1
8
 1 0 0 1 0.5 0 0.5 1
8
 1 0 0 1 0.1 0 0.9 1
8
 1 0 0 1 0.5 0 0.5 1
8
 1 0 0 1 0.5 0 0.5 1
8
 1 0 0 1 0.9 0 0.1 1
8
 1 0 0 1 0.09 0 0.91 1
8
 1 0 0 1 0.5 0 0.5 1
8
 1 0 0 1 0.5 0 0.5 1
8
 1 0 0 1 0 0 1 1
8
 1 0 0 1 0 0 1 1
8
 1 0 0 1 0.5 0 0.5 1
8
 1 0 0 1 0 0 1 1
8
 1 0 0 1 0.5 0 0.5 1
8
 1 0 0 1 0.1 0 0.9 1
8
 1 0 0 1 0.5 0 0.5 1
8
 1 0 0 1 0.57 0 0.43 1
8
 1 0 0 1 0 0 1 1
8
 1 0 0 1 0 0 1 1
8
 1 0 0 1 0 0 1 1
8
 1 0 0 1 0.5 0 0.5 1
8
 1 0 0 1 0.5 0 0.5 1
8
 1 0 0 1 0.9 0 0.1 1
8
 1 0 0 1 0 0 1 1
8
 1 0 0 1 0.5 0 0.5 1
8
 1 0 0 1 0.1 0 0.9 1
8
 1 0 0 1 0.5 0 0.5 1
8
 1 0 0 1 0.1 0 0.9 1
8
 1 0 0 1 0.4 0 0.6 1
8
 1 0 0 1 0.5 0 0.5 1
8
 1 0 0 1 0 0 1 1
8
 1 0 0 1 0.5 0 0.5 1
8
 1 0 0 1 0.9 0 0.1 1
8
 1 0 0 1 0 0 1 1
8
 1 0 0 1 0.5 0 0.5 1
8
 1 0 0 1 0 0 1 1
8
 1 0 0 1 0.89 0 0.11 1
8
 1 0 0 1 0.5 0 0.5 1
8
 1 0 0 1 0.5 0 0.5 1
8
 1 0 0 1 0 0 1 1
8
 1 0 0 1 0.5 0 0.5 1
8
 1 0 0 1 0 0 1 1
8
 1 0 0 1 0.4 0 0.6 1
8
 1 0 0 1 0.5 0 0.5 1
8
 1 0 0 1 0 0 1 1
8
 1 0 0 1 0 0 1 1
8
 1 0 0 1 0.1 0 0.9 1
8
 1 0 0 1 0.6 0 0.4 1
8
 1 0 0 1 0.5 0 0.5 1
8
 1 0 0 1 0.1 0 0.9 1
8
 1 0 0 1 0.4 0 0.6 1
8
 1 0 0 1 0 0 1 1
8
 1 0 0 1 0.5 0 0.5 1
8
 1 0 0 1 0 0 1 1
8
 1 0 0 1 0 0 1 1
8
 1 0 0 1 0.1 0 0.9 1
8
 1 0 0 1 0.59 0 0.41 1
8
 1 0 0 1 0 0 1 1
8
 1 0 0 1 0.4 0 0.6 1
8
 1 0 0 1 0 0 1 1
8
 1 0 0 1 0.5 0 0.5 1
8
 1 0 0 1 0.9 0 0.1 1
8
 1 0 0 1 0.5 0 0.5 1
8
 1 0 0 1 0 0 1 1
8
 1 0 0 1 0 0 1 1
8
 1 0 0 1 0.9 0 0.1 1
8
 1 0 0 1 0.6 0 0.4 1
8
 1 0 0 1 0.4 0 0.6 1
8
 1 0 0 1 0.5 0 0.5 1
8
 1 0 0 1 0.1 0 0.9 1
8
 1 0 0 1 0.4 0 0.6 1
8
 1 0 0 1 0 0 1 1
8
 1 0 0 1 0 0 1 1
8
 1 0 0 1 0.5 0 0.5 1
8
 1 0 0 1 0.09 0 0.91 1
8
 1 0 0 1 0 0 1 1
8
 1 0 0 1 0 0 1 1
8
 1 0 0 1 0.5 0 0.5 1
8
 1 0 0 1 0 0 1 1
8
 1 0 0 1 0 0 1 1
8
 1 0 0 1 0.89 0 0.11 1
8
 1 0 0 1 0 0 1 1
8
 1 0 0 1 0 0 1 1
8
 1 0 0 1 0 0 1 1
8
 1 0 0 1 0.5 0 0.5 1
8
 1 0 0 1 0.5 0 0.5 1
8
 1 0 0 1 0.5 0 0.5 1
8
 1 0 0 1 0.5 0 0.5 1
8
 1 0 0 1 0.5 0 0.5 1
8
 1 0 0 1 0.5 0 0.5 1
8
 1 0 0 1 0 0 1 1
8
 1 0 0 1 0.5 0 0.5 1
8
 1 0 0 1 0.4 0 0.6 1
8
 1 0 0 1 0.5 0 0.5 1
8
 1 0 0 1 0.7 0 0.3 1
8
 1 0 0 1 0.5 0 0.5 1
8
 1 0 0 1 0.89 0 0.11 1
8
 1 0 0 1 0.5 0 0.5 1
8
 1 0 0 1 0.9 0 0.1 1
8
 1 0 0 1 0 0 1 1
8
 1 0 0 1 0.9 0 0.1 1
8
 1 0 0 1 0.5 0 0.5 1
8
 1 0 0 1 0.5 0 0.5 1
8
 1 0 0 1 0 0 1 1
8
 1 0 0 1 0 0 1 1
8
 1 0 0 1 0.75 0 0.25 1
8
 1 0 0 1 0 0 1 1
8
 1 0 0 1 0.09 0 0.91 1
8
 1 0 0 1 0.5 0 0.5 1
8
 1 0 0 1 0 0 1 1
8
 1 0 0 1 0.5 0 0.5 1
8
 1 0 0 1 0 0 1 1
8
 1 0 0 1 0 0 1 1
8
 1 0 0 1 0.9 0 0.1 1
8
 1 0 0 1 0.7 0 0.3 1
8
 1 0 0 1 0.4 0 0.6 1
8
 1 0 0 1 0.5 0 0.5 1
8
 1 0 0 1 0.1 0 0.9 1
8
 1 0 0 1 0 0 1 1
8
 1 0 0 1 0.6 0 0.4 1
8
 1 0 0 1 0.5 0 0.5 1
8
 1 0 0 1 0.4 0 0.6 1
8
 1 0 0 1 0.9 0 0.1 1
8
 1 0 0 1 0.5 0 0.5 1
8
 1 0 0 1 0.9 0 0.1 1
8
 1 0 0 1 0 0 1 1
8
 1 0 0 1 0 0 1 1
8
 1 0 0 1 0 0 1 1
8
 1 0 0 1 0.4 0 0.6 1
8
 1 0 0 1 0 0 1 1
8
 1 0 0 1 0.09 0 0.91 1
8
 1 0 0 1 0 0 1 1
8
 1 0 0 1 0.9 0 0.1 1
8
 1 0 0 1 0.5 0 0.5 1
8
 1 0 0 1 0 0 1 1
8
 1 0 0 1 0 0 1 1
8
 1 0 0 1 0 0 1 1
8
 1 0 0 1 0.9 0 0.1 1
8
 1 0 0 1 0 0 1 1
8
 1 0 0 1 0.9 0 0.1 1
8
 1 0 0 1 0 0 1 1
8
 1 0 0 1 0.05 0 0.95 1
8
 1 0 0 1 0.5 0 0.5 1
8
 1 0 0 1 0.5 0 0.5 1
8
 1 0 0 1 0.5 0 0.5 1
8
 1 0 0 1 0 0 1 1
8
 1 0 0 1 0.5 0 0.5 1
8
 1 0 0 1 0 0 1 1
8
 1 0 0 1 0.1 0 0.9 1
8
 1 0 0 1 0 0 1 1
8
 1 0 0 1 0.5 0 0.5 1
8
 1 0 0 1 0 0 1 1
8
 1 0 0 1 0 0 1 1
8
 1 0 0 1 0.9 0 0.1 1
8
 1 0 0 1 0.01 0 0.99 1
2
 0.03 1
2
 0.9995 0.0005
2
 0.99995 5e-05
2
 0.999995 5e-06
2
 0.9999 0.0001
2
 0.99999 1e-05
2
 0.99975 0.00025
2
 0.99999 1e-05
2
 0.99995 5e-05
2
 0.99999 1e-05
2
 0.9999 0.0001
2
 0.99975 0.00025
2
 0.9999 0.0001
2
 0.9999 0.0001
2
 0.9999 0.0001
2
 0.99989 0.00011
2
 0.999999 1e-06
2
 0.9999 0.0001
2
 0.9999 0.0001
2
 0.9999 0.0001
2
 0.99998 2e-05
2
 0.99999 1e-05
2
 0.9999 0.0001
2
 0.99995 5e-05
2
 0.99999 1e-05
2
 0.998 0.002
2
 0.99974 0.00026
2
 0.999998 2e-06
2
 0.99945 0.00055
2
 0.9999 0.0001
2
 0.99995 5e-05
2
 0.99996 4e-05
2
 0.99981 0.00019
2
 0.9999 0.0001
2
 0.99998 2e-05
2
 0.9999 0.0001
2
 0.9999 0.0001
2
 0.99992 8e-05
2
 0.9999 0.0001
2
 0.99999 1e-05
2
 0.9996 0.0004
2
 0.99996 4e-05
2
 0.99995 5e-05
2
 0.9999 0.0001
2
 0.9995 0.0005
2
 0.99999 1e-05
2
 0.999973 2.7e-05
2
 0.99995 5e-05
2
 0.99999 1e-05
2
 0.9999 0.0001
2
 0.9999 0.0001
2
 0.99999 1e-05
2
 0.99982 0.00018
2
 0.9999 0.0001
2
 0.99995 5e-05
2
 0.9998 0.0002
2
 0.99985 0.00015
2
 0.9999 0.0001
2
 0.9996 0.0004
2
 0.99995 5e-05
2
 0.99998 2e-05
2
 0.99999 1e-05
2
 0.9999 0.0001
2
 0.9999 0.0001
2
 0.9998 0.0002
2
 0.9995 0.0005
2
 0.99999 1e-05
2
 0.9995 0.0005
2
 0.9998 0.0002
2
 0.9998 0.0002
2
 0.99995 5e-05
2
 0.9998 0.0002
2
 0.9998 0.0002
2
 0.99996 4e-05
2
 0.9994 0.0006
2
 0.99998 2e-05
2
 0.99999 1e-05
2
 0.9999 0.0001
2
 0.9995 0.0005
2
 0.9999 0.0001
2
 0.99998 2e-05
2
 0.99998 2e-05
2
 0.9997 0.0003
2
 0.9999 0.0001
2
 0.99984 0.00016
2
 0.99989 0.00011
2
 0.99993 7e-05
2
 0.9996 0.0004
2
 0.99997 3e-05
2
 0.999 0.001
2
 0.9999 0.0001
2
 0.996 0.004
2
 0.9999 0.0001
2
 0.9999 0.0001
2
 0.9999 0.0001
2
 0.99998 2e-05
2
 0.99995 5e-05
2
 0.9965 0.0035
2
 0.9999 0.0001
2
 0.9856 0.0144
2
 0.9999 0.0001
2
 0.99985 0.00015
2
 0.99996 4e-05
2
 0.9999 0.0001
2
 0.9999 0.0001
2
 0.9999 0.0001
2
 0.999977 2.291e-05
2
 0.9996 0.0004
2
 0.999 0.001
2
 0.99989 0.00011
2
 0.99995 5e-05
2
 0.9999 0.0001
2
 0.999 0.001
2
 0.99975 0.00025
2
 0.9988 0.0012
2
 0.99995 5e-05
2
 0.9985 0.0015
2
 0.99987 0.00013
2
 0.9995 0.0005
2
 0.99995 5e-05
2
 0.99995 5e-05
2
 0.99999 1e-05
2
 0.99998 2e-05
2
 0.9999 0.0001
2
 0.9998 0.0002
2
 1 1.2e-07
2
 0.9999 0.0001
2
 0.99995 5e-05
2
 0.9999 0.0001
2
 0.99998 2e-05
2
 0.99999 1e-05
2
 0.9999 0.0001
2
 0.9999 0.0001
2
 0.999996 4e-06
2
 0.9995 0.0005
2
 1 1.6e-07
2
 0.9999 0.0001
2
 0.9999 0.0001
2
 0.9999 0.0001
2
 0.999907 9.332e-05
2
 0.9999 0.0001
2
 0.9994 0.0006
2
 0.9999 0.0001
2
 0.999969 3.12e-05
2
 0.9995 0.0005
2
 0.99995 5e-05
2
 0.999992 8e-06
2
 0.9999 0.0001
2
 0.99975 0.00025
2
 0.9999 0.0001
2
 0.99764 0.00236
2
 0.99999 1e-05
2
 0.9999 0.0001
2
 0.9999 0.0001
2
 0.99999 1e-05
2
 0.9998 0.0002
2
 0.9999 0.0001
2
 0.99998 2e-05
2
 0.9999 0.0001
2
 0.9999 0.0001
2
 0.9995 0.0005
2
 0.9995 0.0005
2
 0.99991 9e-05
2
 0.99991 9e-05
2
 0.9999 0.0001
2
 0.9999 0.0001
2
 0.99995 5e-05
2
 0.99997 3e-05
2
 0.9985 0.0015
2
 0.9995 0.0005
2
 0.99995 5e-05
2
 0.99994 6e-05
2
 0.9999 0.0001
2
 0.9998 0.0002
2
 0.9999 0.0001
2
 0.9999 0.0001
2
 0.99997 3e-05
2
 0.99997 3e-05
2
 0.9999 0.0001
2
 0.99989 0.00011
2
 0.9995 0.0005
2
 0.9999 0.0001
2
 0.9999 0.0001
2
 0.999 0.001
2
 0.9999 0.0001
2
 0.99997 3e-05
2
 0.9999 0.0001
2
 0.99999 1e-05
2
 0.9999 0.0001
2
 0.99996 4e-05
2
 0.9999 0.0001
2
 0.9998 0.0002
2
 0.99997 3e-05
2
 0.99998 2e-05
2
 0.9999 0.0001
2
 0.99993 7e-05
1
 1

